NAME: kroA100
TYPE: TSP
COMMENT: 100 world cities (geographic coordinates, Haversine distance)
DIMENSION: 100
EDGE_WEIGHT_TYPE: EUC_2D
NODE_COORD_SECTION
1 52.52 13.40
2 48.86 2.35
3 51.51 -0.13
4 41.90 12.50
5 40.42 -3.70
6 52.37 4.90
7 50.85 4.35
8 55.76 37.62
9 59.33 18.07
10 60.17 24.94
11 56.26 9.50
12 53.35 -6.26
13 47.50 19.04
14 50.08 14.44
15 48.21 16.37
16 46.95 7.45
17 45.46 9.19
18 41.39 2.17
19 38.72 -9.14
20 37.98 23.73
21 44.43 26.10
22 42.70 23.32
23 43.86 18.41
24 44.79 20.45
25 42.00 21.43
26 42.66 21.17
27 41.33 19.82
28 35.69 139.69
29 31.23 121.47
30 22.54 114.06
31 34.69 135.50
32 37.57 126.98
33 1.35 103.82
34 28.61 77.23
35 19.08 72.88
36 13.08 80.28
37 12.97 77.59
38 6.52 3.38
39 9.08 7.40
40 28.98 41.01
41 25.20 55.27
42 33.89 35.50
43 31.95 35.93
44 30.04 31.24
45 33.57 -7.58
46 36.75 3.04
47 34.02 -6.84
48 39.90 32.85
49 41.01 28.98
50 38.42 27.14
51 31.78 35.22
52 32.09 34.78
53 27.18 78.02
54 26.91 75.79
55 22.57 88.36
56 17.39 78.49
57 18.52 73.86
58 23.26 77.41
59 22.30 70.80
60 8.98 38.76
61 4.04 9.69
62 5.55 -0.20
63 6.37 2.42
64 14.69 -17.44
65 12.64 -8.00
66 10.52 -3.26
67 8.98 -79.52
68 9.93 -84.08
69 12.12 -86.24
70 13.69 -89.19
71 14.63 -90.51
72 19.43 -99.13
73 21.16 -86.82
74 20.66 -103.35
75 25.69 -100.31
76 -33.87 151.21
77 -37.81 144.96
78 -33.45 -70.65
79 -34.60 -58.38
80 -23.55 -46.63
81 -22.91 -43.20
82 -12.05 -77.05
83 4.60 -74.08
84 10.48 -66.90
85 40.71 -74.01
86 34.05 -118.24
87 41.88 -87.63
88 29.76 -95.37
89 39.95 -75.17
90 37.77 -122.42
91 42.36 -71.06
92 32.72 -117.16
93 33.75 -84.39
94 39.74 -104.99
95 47.61 -122.33
96 25.76 -80.19
97 45.50 -73.57
98 43.65 -79.38
99 49.28 -123.12
100 51.04 -114.07
EOF
